7 6 1 -1 7 1 4 3 4 -1 
1 6 4 2 -1 5 0 4 0 -1 
1 -1 7 7 -1 0 4 7 1 -1 
1 9 7 6 4 4 0 4 3 -1 
6 0 2 4 3 9 -1 5 5 -1 
8 -1 4 7 0 10 8 10 3 -1 
5 2 -1 0 10 4 5 0 9 -1 
3 8 5 8 0 9 6 8 5 -1 
5 5 6 4 7 7 2 9 5 -1 
0 8 3 -1 -1 -1 8 9 7 -1 
